nServices=10;
nDrivers=15;
nBuses=15;
maxBuses=12;
startingTime=[109 199 154 28 143 77 65 137 192 179];
durationTime=[12 18 27 14 24 12 29 14 16 28];
durationDist=[38 23 24 38 38 42 42 58 49 26];
passangers=[15 20 3 18 4 13 8 16 4 14];
capacity=[12 11 12 18 12 13 15 11 23 19 16 25 24 14 19];
costTime=[8 7 8 6 8 7 7 6 7 9 8 9 6 6 6];
costDist=[5 3 5 3 2 6 2 6 3 6 6 3 3 3 5];
maxTime=[33 47 46 34 58 45 31 59 27 25 45 46 34 49 31];
costBM=[6 8 5 5 5 7 7 8 6 6 6 7 6 6 7];
costEM=[9 11 11 12 8 11 9 12 8 8 11 9 12 11 9];
BM=[20 19 16 15 17 20 17 19 19 18 14 11 20 15 15];
